nNurses = 147;
nHours = 38;
minHours = 9;
maxHours = 18;
maxConsec = 8;
maxPresence = 15;
demand = [18, 21, 25, 27, 23, 28, 31, 32, 36, 35, 40, 36, 32, 37, 42, 43, 46, 46, 41, 43, 43, 47, 46, 45, 40, 40, 40, 35, 34, 35, 30, 35, 40, 37, 35, 36, 39, 35];
